
===== New CPLEX run =====
Instance: /home/yorig/tuner/mpils-tests/instances/miplib/medium-1/neos-1456979.mps
Config: /scratch/yorig/mpils-results-grid-seconds-10-no-mip-start/medium-1/2proc/seed-4/8_neos-1456979_seed-4_20260503_051509/iterated_local_search/run_3_worker_0/ils_config_1911814192531101432.prm
========================

Selected objective sense:  MINIMIZE
Selected objective  name:  R6771
Selected RHS        name:  B
Selected bound      name:  BOUND
Version identifier: 22.1.2.0 | 2024-11-26 | 0edbb82fd
CPXPARAM_Threads                                 8
CPXPARAM_Parallel                                1
CPXPARAM_MIP_Cuts_Cliques                        2
CPXPARAM_MIP_Strategy_SubAlgorithm               1
CPXPARAM_MIP_Cuts_FlowCovers                     -1
CPXPARAM_MIP_Cuts_Implied                        -1
CPXPARAM_MIP_Cuts_GUBCovers                      -1
CPXPARAM_MIP_Limits_GomoryCand                   150
CPXPARAM_MIP_Cuts_PathCut                        2
CPXPARAM_MIP_Cuts_MIRCut                         2
CPXPARAM_Emphasis_MIP                            1
CPXPARAM_TimeLimit                               10
Tried aggregator 1 time.
MIP Presolve eliminated 175 rows and 10 columns.
MIP Presolve modified 4950 coefficients.
Reduced MIP has 6595 rows, 4595 columns, and 35740 nonzeros.
Reduced MIP has 4245 binaries, 175 generals, 0 SOSs, and 0 indicators.
Presolve time = 0.01 sec. (15.92 ticks)
Probing time = 0.01 sec. (5.74 ticks)
Tried aggregator 1 time.
Detecting symmetries...
MIP Presolve modified 90 coefficients.
Reduced MIP has 6595 rows, 4595 columns, and 35740 nonzeros.
Reduced MIP has 4245 binaries, 175 generals, 0 SOSs, and 0 indicators.
Presolve time = 0.02 sec. (27.10 ticks)
Probing time = 0.01 sec. (5.37 ticks)
Clique table members: 20433.
MIP emphasis: integer feasibility.
MIP search method: dynamic search.
Parallel mode: deterministic, using up to 8 threads.
Root relaxation solution time = 0.03 sec. (38.71 ticks)

        Nodes                                         Cuts/
   Node  Left     Objective  IInf  Best Integer    Best Bound    ItCnt     Gap

      0     0      154.0000   120                    154.0000      736         
      0     0      154.0000    90                    Cuts: 76     1524         
      0     0      154.0000   104                   Cuts: 135     3705         
      0     0      154.0000    86                    Cuts: 41     5252         
      0     2      154.0000    86                    154.0000     5252         
Elapsed time = 2.01 sec. (1892.96 ticks, tree = 0.02 MB, solutions = 0)
      5     4      157.0000   108                    155.1111    10386         
     10     9      163.1552    89                    157.0000    20988         
     24     9      164.7241   104                    157.0000    20751         
     47    28      165.7289    76                    157.0000    39240         
     60    33      162.9841    53                    157.0000    48605         
     82    78      172.0000    47                    157.0000    97493         
    100    91      212.2592    54                    157.0000   113927         
    117   110      170.0163    41                    157.0000   127989         
    139   125      170.5386    67                    157.0000   142778         
*   311   243      integral     0      194.0000      157.0000   208597   19.07%
    319   206      173.0000    29      194.0000      157.0000   193191   19.07%
Elapsed time = 5.77 sec. (5223.62 ticks, tree = 0.60 MB, solutions = 1)
    488   333      177.0000    16      194.0000      157.0000   300440   19.07%
    623   416    infeasible            194.0000      157.0000   359538   19.07%
    778   535      178.2659   110      194.0000      157.0000   431523   19.07%
    955   695      177.5791   104      194.0000      157.0000   526973   19.07%

Clique cuts applied:  2
Cover cuts applied:  5
Mixed integer rounding cuts applied:  308
Flow path cuts applied:  0
Zero-half cuts applied:  19
Gomory fractional cuts applied:  9

Root node processing (before b&c):
  Real time             =    1.88 sec. (1837.08 ticks)
Parallel b&c, 8 threads:
  Real time             =    8.12 sec. (7765.94 ticks)
  Sync time (average)   =    2.12 sec.
  Wait time (average)   =    0.00 sec.
                          ------------
Total (root+branch&cut) =   10.00 sec. (9603.02 ticks)
Gap: 19.07%
Upper bound: 194
Lower bound: 157
End of CPLEX run. Time: 10.0039 seconds

===== New CPLEX run =====
Instance: /home/yorig/tuner/mpils-tests/instances/miplib/medium-1/neos-1456979.mps
Config: /scratch/yorig/mpils-results-grid-seconds-10-no-mip-start/medium-1/2proc/seed-4/8_neos-1456979_seed-4_20260503_051509/iterated_local_search/run_3_worker_0/ils_config_15096530314714716331.prm
========================

Selected objective sense:  MINIMIZE
Selected objective  name:  R6771
Selected RHS        name:  B
Selected bound      name:  BOUND
Version identifier: 22.1.2.0 | 2024-11-26 | 0edbb82fd
CPXPARAM_Threads                                 8
CPXPARAM_Parallel                                1
CPXPARAM_MIP_Cuts_Cliques                        2
CPXPARAM_MIP_Cuts_FlowCovers                     -1
CPXPARAM_MIP_Cuts_Implied                        -1
CPXPARAM_MIP_Cuts_GUBCovers                      -1
CPXPARAM_MIP_Limits_GomoryCand                   100
CPXPARAM_MIP_Cuts_PathCut                        2
CPXPARAM_MIP_Cuts_MIRCut                         2
CPXPARAM_Emphasis_MIP                            1
CPXPARAM_TimeLimit                               10
Tried aggregator 1 time.
MIP Presolve eliminated 175 rows and 10 columns.
MIP Presolve modified 4950 coefficients.
Reduced MIP has 6595 rows, 4595 columns, and 35740 nonzeros.
Reduced MIP has 4245 binaries, 175 generals, 0 SOSs, and 0 indicators.
Presolve time = 0.01 sec. (15.92 ticks)
Probing time = 0.01 sec. (5.74 ticks)
Tried aggregator 1 time.
Detecting symmetries...
MIP Presolve modified 90 coefficients.
Reduced MIP has 6595 rows, 4595 columns, and 35740 nonzeros.
Reduced MIP has 4245 binaries, 175 generals, 0 SOSs, and 0 indicators.
Presolve time = 0.02 sec. (27.10 ticks)
Probing time = 0.00 sec. (5.37 ticks)
Clique table members: 20433.
MIP emphasis: integer feasibility.
MIP search method: dynamic search.
Parallel mode: deterministic, using up to 8 threads.
Root relaxation solution time = 0.04 sec. (38.64 ticks)

        Nodes                                         Cuts/
   Node  Left     Objective  IInf  Best Integer    Best Bound    ItCnt     Gap

      0     0      154.0000   120                    154.0000      736         
      0     0      154.0000   129                    Cuts: 76      897         
      0     0      154.0000   119                    Cuts: 65     1093         
      0     0      154.0000   132                   Cuts: 229     1320         
      0     2      154.0000    68                    154.0000     1320         
Elapsed time = 0.89 sec. (652.40 ticks, tree = 0.02 MB, solutions = 0)
     69    59      178.7480    85                    158.0000     7875         
    242   216      210.5325    97                    158.0000    19227         
    392   315      171.0000    37                    158.0000    25830         
    660   455      186.2322    58                    158.0000    32938         
    929   678      264.2410    23                    158.9220    44068         
*   932   672      integral     0      260.0000      158.9220    44080   38.88%
   1093   812      172.6250    50      260.0000      158.9220    51413   38.88%
   1394  1026      177.5000   123      260.0000      158.9220    59090   38.88%
*  1414  1072      integral     0      197.0000      158.9220    60987   19.33%
   1630   966      171.6704   191      197.0000      158.9220    68522   19.33%

Performing restart 1

Repeating presolve.
Tried aggregator 1 time.
MIP Presolve eliminated 1 rows and 0 columns.
MIP Presolve modified 4723 coefficients.
Reduced MIP has 6594 rows, 4595 columns, and 34313 nonzeros.
Reduced MIP has 4245 binaries, 175 generals, 0 SOSs, and 0 indicators.
Presolve time = 0.02 sec. (33.94 ticks)
Tried aggregator 1 time.
Reduced MIP has 6594 rows, 4595 columns, and 34313 nonzeros.
Reduced MIP has 4245 binaries, 175 generals, 0 SOSs, and 0 indicators.
Presolve time = 0.02 sec. (25.15 ticks)
Represolve time = 0.20 sec. (103.72 ticks)
   1727     0      154.4211   123      197.0000      Cuts: 31    79978   19.33%
   1727     0      157.6250   207      197.0000      Cuts: 96    80335   19.33%
   1727     0      158.7414   222      197.0000      Cuts: 99    80616   19.33%
   1727     2      158.7414   182      197.0000      158.9220    80616   19.33%
*  1787+    1                          196.0000      159.2414            18.75%
   1826    92      177.1288    50      196.0000      159.2414    94117   18.75%
Elapsed time = 6.43 sec. (5324.02 ticks, tree = 1.50 MB, solutions = 3)
*  1954   149      integral     0      185.0000      161.5000   100357   12.70%
   2244   292      164.5833   196      185.0000      162.0000   116458   12.43%
   2699   702      178.4444   147      185.0000      162.0000   143698   12.43%
   3211  1023      176.4545   141      185.0000      162.0000   165227   12.43%

Clique cuts applied:  3
Cover cuts applied:  9
Mixed integer rounding cuts applied:  367
Flow path cuts applied:  0
Zero-half cuts applied:  41
Multi commodity flow cuts applied:  3
Gomory fractional cuts applied:  37

Root node processing (before b&c):
  Real time             =    0.81 sec. (650.15 ticks)
Parallel b&c, 8 threads:
  Real time             =    9.22 sec. (7559.27 ticks)
  Sync time (average)   =    3.19 sec.
  Wait time (average)   =    0.00 sec.
                          ------------
Total (root+branch&cut) =   10.02 sec. (8209.43 ticks)
Gap: 12.43%
Upper bound: 185
Lower bound: 162
End of CPLEX run. Time: 10.0234 seconds

===== New CPLEX run =====
Instance: /home/yorig/tuner/mpils-tests/instances/miplib/medium-1/neos-1456979.mps
Config: /scratch/yorig/mpils-results-grid-seconds-10-no-mip-start/medium-1/2proc/seed-4/8_neos-1456979_seed-4_20260503_051509/iterated_local_search/run_3_worker_0/ils_config_8849014987989942945.prm
========================

Selected objective sense:  MINIMIZE
Selected objective  name:  R6771
Selected RHS        name:  B
Selected bound      name:  BOUND
Version identifier: 22.1.2.0 | 2024-11-26 | 0edbb82fd
CPXPARAM_Threads                                 8
CPXPARAM_Parallel                                1
CPXPARAM_MIP_Cuts_Cliques                        2
CPXPARAM_MIP_Cuts_FlowCovers                     -1
CPXPARAM_MIP_Cuts_Implied                        -1
CPXPARAM_MIP_Cuts_GUBCovers                      -1
CPXPARAM_MIP_Limits_GomoryCand                   150
CPXPARAM_MIP_Cuts_PathCut                        2
CPXPARAM_MIP_Cuts_MIRCut                         2
CPXPARAM_Emphasis_MIP                            3
CPXPARAM_TimeLimit                               10
Tried aggregator 1 time.
MIP Presolve eliminated 175 rows and 10 columns.
MIP Presolve modified 4950 coefficients.
Reduced MIP has 6595 rows, 4595 columns, and 35740 nonzeros.
Reduced MIP has 4245 binaries, 175 generals, 0 SOSs, and 0 indicators.
Presolve time = 0.01 sec. (15.92 ticks)
Probing time = 0.01 sec. (5.74 ticks)
Tried aggregator 1 time.
Detecting symmetries...
MIP Presolve modified 90 coefficients.
Reduced MIP has 6595 rows, 4595 columns, and 35740 nonzeros.
Reduced MIP has 4245 binaries, 175 generals, 0 SOSs, and 0 indicators.
Presolve time = 0.02 sec. (27.10 ticks)
Probing time = 0.04 sec. (33.25 ticks)
Probing added 79744 nonzeros.
Clique table members: 2872.
MIP emphasis: best bound.
MIP search method: dynamic search.
Parallel mode: deterministic, using up to 8 threads.
Root relaxation solution time = 0.08 sec. (52.42 ticks)

        Nodes                                         Cuts/
   Node  Left     Objective  IInf  Best Integer    Best Bound    ItCnt     Gap

      0     0      154.0000   158                    154.0000      695         
      0     0      154.0000    82                    Cuts: 55      812         
      0     0      157.0000   148                   Cuts: 115      976         
      0     0      159.5000   172                   Cuts: 124     1164         
      0     0      162.5833   207                   Cuts: 169     1569         
      0     0      164.0000   185                   Cuts: 102     1726         
      0     0      164.0000   155                   Cuts: 167     1855         
      0     0      164.0642   259                    Cuts: 61     2004         
      0     0      164.5338   252                   Cuts: 124     2195         
      0     0      164.5856   261                    Cuts: 95     2497         
      0     0      164.6935   250                    Cuts: 77     2698         
      0     0      164.7117   240                    Cuts: 62     2818         
      0     0      165.4376   246                   Cuts: 142     2874         
      0     0      165.5428   234                    Cuts: 36     2968         
      0     0      165.5428   242                    Cuts: 87     3040         
      0     0      165.6258   280                    Cuts: 11     3138         
      0     0      167.0067   277                   Cuts: 179     3293         
      0     0      167.0067   269                    Cuts: 45     3339         
      0     2      167.0067   263                    167.0067     3339         
Elapsed time = 4.51 sec. (7083.41 ticks, tree = 0.02 MB, solutions = 0)
      7     7      167.4743   245                    167.0722     4210         
     36    21      168.2538   235                    167.5261     8221         
     54    51      168.3661   204                    168.1786    15824         
     67    63      171.7353   184                    168.3418    23489         
     80    76      168.9375   203                    168.4134    29003         
     90    70      168.8259   200                    168.5133    26372         
    108   101      169.1193   138                    168.5697    36552         
    127   109      170.5087   171                    168.7232    38688         
    147   129      169.0736   206                    168.7232    42653         
    236   186      171.1019   154                    168.9773    57754         
Elapsed time = 8.56 sec. (10350.91 ticks, tree = 2.35 MB, solutions = 0)
    312   283      170.3333   222                    169.5081    77472         

Clique cuts applied:  7
Cover cuts applied:  20
Mixed integer rounding cuts applied:  1898
Flow path cuts applied:  0
Zero-half cuts applied:  54
Lift and project cuts applied:  5
Gomory fractional cuts applied:  17

Root node processing (before b&c):
  Real time             =    4.36 sec. (7041.00 ticks)
Parallel b&c, 8 threads:
  Real time             =    5.65 sec. (4437.78 ticks)
  Sync time (average)   =    2.18 sec.
  Wait time (average)   =    0.00 sec.
                          ------------
Total (root+branch&cut) =   10.01 sec. (11478.78 ticks)
Gap: unavailable
Lower bound: 169.564
End of CPLEX run. Time: 10.0093 seconds

===== New CPLEX run =====
Instance: /home/yorig/tuner/mpils-tests/instances/miplib/medium-1/neos-1456979.mps
Config: /scratch/yorig/mpils-results-grid-seconds-10-no-mip-start/medium-1/2proc/seed-4/8_neos-1456979_seed-4_20260503_051509/iterated_local_search/run_3_worker_0/ils_config_2758245588883562922.prm
========================

Selected objective sense:  MINIMIZE
Selected objective  name:  R6771
Selected RHS        name:  B
Selected bound      name:  BOUND
Version identifier: 22.1.2.0 | 2024-11-26 | 0edbb82fd
CPXPARAM_Threads                                 8
CPXPARAM_Parallel                                1
CPXPARAM_MIP_Cuts_Cliques                        2
CPXPARAM_MIP_Cuts_FlowCovers                     -1
CPXPARAM_MIP_Cuts_Implied                        -1
CPXPARAM_MIP_Cuts_GUBCovers                      -1
CPXPARAM_MIP_Limits_GomoryCand                   800
CPXPARAM_MIP_Cuts_PathCut                        2
CPXPARAM_MIP_Cuts_MIRCut                         2
CPXPARAM_Emphasis_MIP                            1
CPXPARAM_TimeLimit                               10
Tried aggregator 1 time.
MIP Presolve eliminated 175 rows and 10 columns.
MIP Presolve modified 4950 coefficients.
Reduced MIP has 6595 rows, 4595 columns, and 35740 nonzeros.
Reduced MIP has 4245 binaries, 175 generals, 0 SOSs, and 0 indicators.
Presolve time = 0.01 sec. (15.92 ticks)
Probing time = 0.01 sec. (5.74 ticks)
Tried aggregator 1 time.
Detecting symmetries...
MIP Presolve modified 90 coefficients.
Reduced MIP has 6595 rows, 4595 columns, and 35740 nonzeros.
Reduced MIP has 4245 binaries, 175 generals, 0 SOSs, and 0 indicators.
Presolve time = 0.02 sec. (27.10 ticks)
Probing time = 0.01 sec. (5.37 ticks)
Clique table members: 20433.
MIP emphasis: integer feasibility.
MIP search method: dynamic search.
Parallel mode: deterministic, using up to 8 threads.
Root relaxation solution time = 0.03 sec. (38.64 ticks)

        Nodes                                         Cuts/
   Node  Left     Objective  IInf  Best Integer    Best Bound    ItCnt     Gap

      0     0      154.0000   120                    154.0000      736         
      0     0      154.0000   129                    Cuts: 76      897         
      0     0      154.0000   119                    Cuts: 65     1093         
      0     0      154.0000   132                   Cuts: 229     1320         
      0     2      154.0000    68                    154.0000     1320         
Elapsed time = 0.82 sec. (659.70 ticks, tree = 0.02 MB, solutions = 0)
     69    59      178.7480    85                    158.0000     7875         
    242   216      210.5325    97                    158.0000    19227         
    392   315      171.0000    37                    158.0000    25830         
    660   455      186.2322    58                    158.0000    32938         
    929   678      264.2410    23                    158.9220    44068         
*   932   672      integral     0      260.0000      158.9220    44080   38.88%
   1093   812      172.6250    50      260.0000      158.9220    51413   38.88%
   1394  1026      177.5000   123      260.0000      158.9220    59090   38.88%
*  1414  1072      integral     0      197.0000      158.9220    60987   19.33%
   1630   966      171.6704   191      197.0000      158.9220    68522   19.33%

Performing restart 1

Repeating presolve.
Tried aggregator 1 time.
MIP Presolve eliminated 1 rows and 0 columns.
MIP Presolve modified 4723 coefficients.
Reduced MIP has 6594 rows, 4595 columns, and 34313 nonzeros.
Reduced MIP has 4245 binaries, 175 generals, 0 SOSs, and 0 indicators.
Presolve time = 0.02 sec. (33.94 ticks)
Tried aggregator 1 time.
Reduced MIP has 6594 rows, 4595 columns, and 34313 nonzeros.
Reduced MIP has 4245 binaries, 175 generals, 0 SOSs, and 0 indicators.
Presolve time = 0.02 sec. (25.15 ticks)
Represolve time = 0.15 sec. (103.72 ticks)
   1727     0      154.4211   123      197.0000      Cuts: 31    79978   19.33%
   1727     0      157.6250   204      197.0000      Cuts: 97    80305   19.33%
   1727     0      158.7414   169      197.0000     Cuts: 102    80637   19.33%
   1727     2      158.7414   169      197.0000      158.9220    80637   19.33%
   1855   101      161.8928   189      197.0000      160.5568    95891   18.50%
Elapsed time = 6.08 sec. (5147.71 ticks, tree = 0.93 MB, solutions = 2)
   2201   325      188.9860   133      197.0000      161.6000   117245   17.97%
   2733   691      186.1176   160      197.0000      161.6000   138929   17.97%
   3171  1074    infeasible            197.0000      161.6000   162084   17.97%

Clique cuts applied:  2
Cover cuts applied:  14
Mixed integer rounding cuts applied:  403
Flow path cuts applied:  0
Zero-half cuts applied:  37
Multi commodity flow cuts applied:  3
Gomory fractional cuts applied:  39

Root node processing (before b&c):
  Real time             =    0.75 sec. (657.35 ticks)
Parallel b&c, 8 threads:
  Real time             =    9.26 sec. (8340.79 ticks)
  Sync time (average)   =    2.90 sec.
  Wait time (average)   =    0.00 sec.
                          ------------
Total (root+branch&cut) =   10.01 sec. (8998.14 ticks)
Gap: 17.97%
Upper bound: 197
Lower bound: 161.6
End of CPLEX run. Time: 10.0123 seconds

===== New CPLEX run =====
Instance: /home/yorig/tuner/mpils-tests/instances/miplib/medium-1/neos-1456979.mps
Config: /scratch/yorig/mpils-results-grid-seconds-10-no-mip-start/medium-1/2proc/seed-4/8_neos-1456979_seed-4_20260503_051509/iterated_local_search/run_3_worker_0/ils_config_5729678237312417253.prm
========================

Selected objective sense:  MINIMIZE
Selected objective  name:  R6771
Selected RHS        name:  B
Selected bound      name:  BOUND
Version identifier: 22.1.2.0 | 2024-11-26 | 0edbb82fd
CPXPARAM_Threads                                 8
CPXPARAM_Parallel                                1
CPXPARAM_MIP_Cuts_Cliques                        2
CPXPARAM_MIP_Cuts_FlowCovers                     -1
CPXPARAM_MIP_Cuts_Implied                        -1
CPXPARAM_MIP_Cuts_GUBCovers                      -1
CPXPARAM_MIP_Limits_GomoryCand                   400
CPXPARAM_MIP_Cuts_PathCut                        2
CPXPARAM_MIP_Cuts_MIRCut                         2
CPXPARAM_Emphasis_MIP                            1
CPXPARAM_TimeLimit                               10
Tried aggregator 1 time.
MIP Presolve eliminated 175 rows and 10 columns.
MIP Presolve modified 4950 coefficients.
Reduced MIP has 6595 rows, 4595 columns, and 35740 nonzeros.
Reduced MIP has 4245 binaries, 175 generals, 0 SOSs, and 0 indicators.
Presolve time = 0.01 sec. (15.92 ticks)
Probing time = 0.01 sec. (5.74 ticks)
Tried aggregator 1 time.
Detecting symmetries...
MIP Presolve modified 90 coefficients.
Reduced MIP has 6595 rows, 4595 columns, and 35740 nonzeros.
Reduced MIP has 4245 binaries, 175 generals, 0 SOSs, and 0 indicators.
Presolve time = 0.02 sec. (27.10 ticks)
Probing time = 0.00 sec. (5.37 ticks)
Clique table members: 20433.
MIP emphasis: integer feasibility.
MIP search method: dynamic search.
Parallel mode: deterministic, using up to 8 threads.
Root relaxation solution time = 0.03 sec. (38.64 ticks)

        Nodes                                         Cuts/
   Node  Left     Objective  IInf  Best Integer    Best Bound    ItCnt     Gap

      0     0      154.0000   120                    154.0000      736         
      0     0      154.0000   129                    Cuts: 76      897         
      0     0      154.0000   119                    Cuts: 65     1093         
      0     0      154.0000   132                   Cuts: 229     1320         
      0     2      154.0000    68                    154.0000     1320         
Elapsed time = 0.91 sec. (659.70 ticks, tree = 0.02 MB, solutions = 0)
     69    59      178.7480    85                    158.0000     7875         
    242   216      210.5325    97                    158.0000    19227         
    392   315      171.0000    37                    158.0000    25830         
    660   455      186.2322    58                    158.0000    32938         
    929   678      264.2410    23                    158.9220    44068         
*   932   672      integral     0      260.0000      158.9220    44080   38.88%
   1093   812      172.6250    50      260.0000      158.9220    51413   38.88%
   1394  1026      177.5000   123      260.0000      158.9220    59090   38.88%
*  1414  1072      integral     0      197.0000      158.9220    60987   19.33%
   1630   966      171.6704   191      197.0000      158.9220    68522   19.33%

Performing restart 1

Repeating presolve.
Tried aggregator 1 time.
MIP Presolve eliminated 1 rows and 0 columns.
MIP Presolve modified 4723 coefficients.
Reduced MIP has 6594 rows, 4595 columns, and 34313 nonzeros.
Reduced MIP has 4245 binaries, 175 generals, 0 SOSs, and 0 indicators.
Presolve time = 0.02 sec. (33.94 ticks)
Tried aggregator 1 time.
Reduced MIP has 6594 rows, 4595 columns, and 34313 nonzeros.
Reduced MIP has 4245 binaries, 175 generals, 0 SOSs, and 0 indicators.
Presolve time = 0.02 sec. (25.15 ticks)
Represolve time = 0.17 sec. (103.72 ticks)
   1727     0      154.4211   123      197.0000      Cuts: 31    79978   19.33%
   1727     0      157.6250   204      197.0000      Cuts: 97    80305   19.33%
   1727     0      158.7414   169      197.0000     Cuts: 102    80637   19.33%
   1727     2      158.7414   169      197.0000      158.9220    80637   19.33%
   1855   101      161.8928   189      197.0000      160.5568    95891   18.50%
Elapsed time = 5.99 sec. (5147.71 ticks, tree = 0.93 MB, solutions = 2)
   2201   325      188.9860   133      197.0000      161.6000   117245   17.97%
   2733   691      186.1176   160      197.0000      161.6000   138929   17.97%
   3169  1140      183.5000   116      197.0000      161.6000   166564   17.97%

Clique cuts applied:  2
Cover cuts applied:  14
Mixed integer rounding cuts applied:  403
Flow path cuts applied:  0
Zero-half cuts applied:  37
Multi commodity flow cuts applied:  3
Gomory fractional cuts applied:  39

Root node processing (before b&c):
  Real time             =    0.74 sec. (656.96 ticks)
Parallel b&c, 8 threads:
  Real time             =    9.28 sec. (8071.80 ticks)
  Sync time (average)   =    2.94 sec.
  Wait time (average)   =    0.00 sec.
                          ------------
Total (root+branch&cut) =   10.02 sec. (8728.76 ticks)
Gap: 17.97%
Upper bound: 197
Lower bound: 161.6
End of CPLEX run. Time: 10.0254 seconds
